networks/zoo_220_9592/zoo_220_9592-lower.txt
Number of groups: 122
Flow 26: {93 56 0} {56 166 0} 
Flow 49: {10 9 0} {9 8 0} {8 20 0} {20 13 0} {13 123 0} 
Flow 52: {37 54 0} {54 45 0} {45 16 0} {16 126 0} 
Flow 106: {68 46 0} {46 34 0} {34 6 0} {6 5 0} {5 49 0} {49 50 0} {50 4 0} {4 102 0} {102 92 0} {92 202 0} 
Flow 535: {102 85 0} {85 31 0} {31 141 0} 
Flow 818: {74 12 0} {12 122 0} 
Flow 877: {46 75 0} {75 185 0} 
Flow 1003: {8 9 0} {9 119 0} 
Flow 1031: {53 39 0} {39 149 0} 
Flow 1309: {15 16 0} 
Flow 1325: {45 54 0} {54 36 0} {36 1 0} {1 104 0} {104 103 0} {103 35 0} {35 145 0} 
Flow 1333: {15 45 0} {45 155 0} 
Flow 1387: {16 15 0} 
Flow 1427: {16 45 0} {45 61 0} {61 60 0} {60 170 0} 
Flow 1450: {11 83 0} {83 193 0} 
Flow 1601: {18 11 0} {11 23 0} {23 133 0} 
Flow 1602: {18 24 0} 
Flow 2090: {23 11 0} {11 84 0} {84 194 0} 
Flow 2109: {106 216 0} 
Flow 2137: {25 28 0} {28 138 0} 
Flow 2182: {25 17 0} {17 90 0} {90 52 0} {52 89 0} {89 77 0} {77 187 0} 
Flow 2290: {27 13 0} {13 28 0} {28 25 0} {25 135 0} 
Flow 2464: {31 101 0} {101 211 0} 
Flow 2572: {26 53 0} {53 163 0} 
Flow 2576: {78 57 0} {57 167 0} 
Flow 2753: {22 47 0} {47 157 0} 
Flow 3271: {38 59 0} {59 108 0} {108 107 0} {107 12 0} {12 22 0} {22 132 0} 
Flow 3338: {58 93 0} {93 203 0} 
Flow 3515: {41 42 0} 
Flow 3640: {62 172 0} 
Flow 3660: {82 192 0} 
Flow 3696: {7 20 0} {20 8 0} {8 118 0} 
Flow 3821: {13 53 0} {53 26 0} {26 29 0} {29 139 0} 
Flow 4168: {47 48 0} {48 74 0} {74 184 0} 
Flow 4338: {65 9 0} {9 10 0} {10 40 0} {40 37 0} {37 76 0} {76 36 0} {36 146 0} 
Flow 4656: {108 59 0} {59 169 0} 
Flow 4780: {29 30 0} {30 78 0} {78 188 0} 
Flow 4964: {39 50 0} {50 160 0} 
Flow 5014: {55 56 0} {56 3 0} {3 102 0} {102 212 0} 
Flow 5066: {56 55 0} {55 39 0} {39 49 0} {49 159 0} 
Flow 5130: {107 106 0} {106 14 0} {14 124 0} 
Flow 5243: {57 78 0} {78 30 0} {30 29 0} {29 26 0} {26 136 0} 
Flow 5402: {59 38 0} {38 62 0} {62 14 0} {14 105 0} {105 35 0} {35 103 0} {103 213 0} 
Flow 5442: {54 37 0} {37 147 0} 
Flow 5458: {60 54 0} {54 164 0} 
Flow 5463: {60 61 0} {61 171 0} 
Flow 5470: {2 66 0} {66 68 0} {68 178 0} 
Flow 5515: {61 45 0} {45 15 0} {15 125 0} 
Flow 5541: {9 65 0} {65 175 0} 
Flow 5546: {36 76 0} {76 186 0} 
Flow 5642: {42 72 0} {72 64 0} {64 174 0} 
Flow 5657: {42 41 0} {41 81 0} {81 79 0} {79 189 0} 
Flow 5658: {63 42 0} {42 69 0} {69 43 0} {43 80 0} {80 190 0} 
Flow 5704: {20 130 0} 
Flow 5822: {66 2 0} {2 40 0} {40 10 0} {10 120 0} 
Flow 5920: {67 33 0} {33 34 0} {34 7 0} {7 117 0} 
Flow 5972: {110 70 0} {70 180 0} 
Flow 6046: {52 51 0} {51 161 0} 
Flow 6092: {50 71 0} {71 64 0} {64 99 0} {99 209 0} 
Flow 6269: {70 110 0} {110 67 0} {67 177 0} 
Flow 6280: {70 44 0} {44 80 0} 
Flow 6309: {4 3 0} {3 113 0} 
Flow 6714: {75 46 0} {46 65 0} {65 8 0} {8 19 0} {19 27 0} {27 137 0} 
Flow 6725: {40 150 0} 
Flow 6740: {49 39 0} {39 55 0} {55 165 0} 
Flow 6778: {75 33 0} {33 67 0} {67 110 0} 
Flow 6780: {76 37 0} {37 40 0} {40 2 0} {2 112 0} 
Flow 6832: {19 28 0} {28 17 0} {17 57 0} {57 58 0} {58 168 0} 
Flow 6962: {87 197 0} 
Flow 7069: {80 43 0} {43 69 0} {69 42 0} {42 152 0} 
Flow 7071: {80 44 0} {44 154 0} 
Flow 7084: {69 41 0} {41 72 0} {72 182 0} 
Flow 7155: {81 41 0} {41 69 0} {69 179 0} 
Flow 7156: {79 44 0} {44 70 0} 
Flow 7167: {64 85 0} {85 195 0} 
Flow 7217: {17 73 0} {73 21 0} {21 32 0} {32 11 0} {11 38 0} {38 148 0} 
Flow 7282: {43 110 0} {110 220 0} 
Flow 7298: {83 11 0} {11 18 0} {18 128 0} 
Flow 7299: {21 73 0} {73 17 0} {17 28 0} {28 19 0} {19 129 0} 
Flow 7301: {32 21 0} {21 131 0} 
Flow 7360: {83 84 0} 
Flow 7394: {84 11 0} {11 121 0} 
Flow 7463: {84 83 0} 
Flow 7572: {77 88 0} {88 198 0} 
Flow 7578: {51 94 0} 
Flow 7623: {85 64 0} {64 72 0} {72 41 0} {41 82 0} {82 44 0} {44 33 0} {33 143 0} 
Flow 7780: {89 52 0} {52 94 0} {94 204 0} 
Flow 7794: {73 12 0} {12 107 0} {107 108 0} {108 218 0} 
Flow 7795: {88 95 0} {95 109 0} {109 219 0} 
Flow 7800: {3 4 0} {4 114 0} 
Flow 7818: {90 17 0} {17 25 0} 
Flow 7896: {5 115 0} 
Flow 7995: {91 92 0} {92 102 0} {102 4 0} {4 50 0} {50 49 0} {49 5 0} {5 6 0} {6 34 0} {34 144 0} 
Flow 8020: {32 24 0} {24 134 0} 
Flow 8040: {34 46 0} {46 156 0} 
Flow 8089: {92 91 0} {91 86 0} {86 31 0} {31 100 0} {100 210 0} 
Flow 8167: {33 75 0} 
Flow 8234: {28 13 0} {13 20 0} {20 7 0} {7 34 0} {34 33 0} {33 44 0} {44 43 0} {43 153 0} 
Flow 8279: {94 52 0} {52 90 0} {90 200 0} 
Flow 8285: {94 51 0} {51 58 0} {58 97 0} {97 207 0} 
Flow 8360: {95 88 0} {88 77 0} {77 89 0} {89 199 0} 
Flow 8493: {72 42 0} {42 63 0} {63 173 0} 
Flow 8523: {97 58 0} {58 98 0} {98 208 0} 
Flow 8547: {98 58 0} {58 57 0} {57 17 0} {17 127 0} 
Flow 8677: {99 64 0} {64 71 0} {71 181 0} 
Flow 8705: {6 116 0} 
Flow 8739: {71 50 0} {50 39 0} {39 53 0} {53 13 0} {13 27 0} {27 19 0} {19 48 0} {48 158 0} 
Flow 8762: {100 31 0} {31 86 0} {86 196 0} 
Flow 8765: {86 91 0} {91 201 0} 
Flow 8807: {101 31 0} {31 85 0} {85 102 0} {102 3 0} {3 56 0} {56 93 0} {93 58 0} {58 51 0} {51 96 0} {96 87 0} {87 95 0} {95 205 0} 
Flow 8904: {48 47 0} {47 35 0} {35 105 0} {105 215 0} 
Flow 8937: {14 62 0} {62 38 0} {38 11 0} {11 32 0} {32 142 0} 
Flow 8945: {44 82 0} {82 41 0} {41 151 0} 
Flow 9071: {35 47 0} {47 22 0} {22 12 0} {12 73 0} {73 183 0} 
Flow 9181: {105 14 0} {14 106 0} {106 107 0} {107 217 0} 
Flow 9353: {104 1 0} {1 111 0} 
Flow 9406: {1 36 0} {36 54 0} {54 60 0} 
Flow 9412: {12 74 0} {74 48 0} {48 19 0} {19 8 0} {8 65 0} {65 46 0} {46 68 0} {68 66 0} {66 176 0} 
Flow 9440: {96 206 0} 
Flow 9448: {103 104 0} {104 214 0} 
Flow 9483: {109 95 0} {95 87 0} {87 96 0} {96 51 0} {51 52 0} {52 162 0} 
Flow 9574: {110 43 0} {43 44 0} {44 79 0} {79 81 0} {81 191 0} 
Time taken running everything: 139 seconds
