networks/zoo_220_9592/zoo_220_9592-lower.sol
<?xml version = "1.0" encoding="UTF-8" standalone="yes"?>
<CPLEXSolution version="1.2">
 <header
   problemName="networks/zoo_220_9592/zoo_220_9592-lower.lp"
   solutionName="incumbent"
   solutionIndex="-1"
   objectiveValue="109"
   solutionTypeValue="3"
   solutionTypeString="primal"
   solutionStatusValue="101"
   solutionStatusString="integer optimal solution"
   solutionMethodString="mip"
   primalFeasible="1"
   dualFeasible="1"
   MIPNodes="0"
   MIPIterations="0"
   writeLevel="3"/>
 <quality
   epInt="1.0000000000000001e-05"
   epRHS="9.9999999999999995e-07"
   maxIntInfeas="0"
   maxPrimalInfeas="0"
   maxX="1"
   maxSlack="1"/>
 <variables>
  <variable name="Y(1,4)" index="3" value="1"/>
  <variable name="Y(2,6)" index="224" value="1"/>
  <variable name="Y(3,13)" index="450" value="1"/>
  <variable name="Y(4,14)" index="670" value="1"/>
  <variable name="Y(5,15)" index="890" value="1"/>
  <variable name="Y(6,16)" index="1110" value="1"/>
  <variable name="Y(7,17)" index="1330" value="1"/>
  <variable name="Y(8,20)" index="1552" value="1"/>
  <variable name="Y(9,26)" index="1777" value="1"/>
  <variable name="Y(10,28)" index="1998" value="1"/>
  <variable name="Y(11,31)" index="2220" value="1"/>
  <variable name="Y(12,32)" index="2440" value="1"/>
  <variable name="Y(13,33)" index="2660" value="1"/>
  <variable name="Y(14,34)" index="2880" value="1"/>
  <variable name="Y(15,36)" index="3101" value="1"/>
  <variable name="Y(16,40)" index="3324" value="1"/>
  <variable name="Y(17,42)" index="3545" value="1"/>
  <variable name="Y(18,43)" index="3765" value="1"/>
  <variable name="Y(19,44)" index="3985" value="1"/>
  <variable name="Y(20,45)" index="4205" value="1"/>
  <variable name="Y(21,46)" index="4425" value="1"/>
  <variable name="Y(22,47)" index="4645" value="1"/>
  <variable name="Y(23,48)" index="4865" value="1"/>
  <variable name="Y(24,52)" index="5088" value="1"/>
  <variable name="Y(25,53)" index="5308" value="1"/>
  <variable name="Y(26,56)" index="5530" value="1"/>
  <variable name="Y(27,57)" index="5750" value="1"/>
  <variable name="Y(28,58)" index="5970" value="1"/>
  <variable name="Y(29,64)" index="6195" value="1"/>
  <variable name="Y(30,65)" index="6415" value="1"/>
  <variable name="Y(31,68)" index="6637" value="1"/>
  <variable name="Y(32,72)" index="6860" value="1"/>
  <variable name="Y(33,73)" index="7080" value="1"/>
  <variable name="Y(34,74)" index="7300" value="1"/>
  <variable name="Y(35,76)" index="7521" value="1"/>
  <variable name="Y(36,83)" index="7747" value="1"/>
  <variable name="Y(37,85)" index="7968" value="1"/>
  <variable name="Y(38,87)" index="8189" value="1"/>
  <variable name="Y(39,91)" index="8412" value="1"/>
  <variable name="Y(40,95)" index="8635" value="1"/>
  <variable name="Y(41,102)" index="8861" value="1"/>
  <variable name="Y(42,1)" index="8979" value="1"/>
  <variable name="Y(44,5)" index="9421" value="1"/>
  <variable name="Y(46,7)" index="9861" value="1"/>
  <variable name="Y(47,11)" index="10084" value="1"/>
  <variable name="Y(48,12)" index="10304" value="1"/>
  <variable name="Y(54,18)" index="11624" value="1"/>
  <variable name="Y(56,21)" index="12065" value="1"/>
  <variable name="Y(57,22)" index="12285" value="1"/>
  <variable name="Y(58,24)" index="12506" value="1"/>
  <variable name="Y(59,25)" index="12726" value="1"/>
  <variable name="Y(61,27)" index="13166" value="1"/>
  <variable name="Y(63,29)" index="13606" value="1"/>
  <variable name="Y(68,35)" index="14707" value="1"/>
  <variable name="Y(70,38)" index="15148" value="1"/>
  <variable name="Y(72,41)" index="15589" value="1"/>
  <variable name="Y(80,49)" index="17349" value="1"/>
  <variable name="Y(83,54)" index="18011" value="1"/>
  <variable name="Y(87,62)" index="18895" value="1"/>
  <variable name="Y(91,71)" index="19780" value="1"/>
  <variable name="Y(95,75)" index="20660" value="1"/>
  <variable name="Y(97,77)" index="21100" value="1"/>
  <variable name="Y(98,79)" index="21321" value="1"/>
  <variable name="Y(99,81)" index="21542" value="1"/>
  <variable name="Y(102,86)" index="22204" value="1"/>
  <variable name="Y(104,89)" index="22645" value="1"/>
  <variable name="Y(106,92)" index="23086" value="1"/>
  <variable name="Y(109,103)" index="23754" value="1"/>
  <variable name="Y(110,106)" index="23976" value="1"/>
  <variable name="Y(111,107)" index="24196" value="1"/>
  <variable name="Y(112,108)" index="24416" value="1"/>
  <variable name="Y(114,2)" index="24748" value="1"/>
  <variable name="Y(119,10)" index="25851" value="1"/>
  <variable name="Y(128,19)" index="27831" value="1"/>
  <variable name="Y(144,37)" index="31353" value="1"/>
  <variable name="Y(156,50)" index="33994" value="1"/>
  <variable name="Y(157,51)" index="34214" value="1"/>
  <variable name="Y(161,55)" index="35094" value="1"/>
  <variable name="Y(165,60)" index="35975" value="1"/>
  <variable name="Y(166,61)" index="36195" value="1"/>
  <variable name="Y(168,63)" index="36635" value="1"/>
  <variable name="Y(171,66)" index="37295" value="1"/>
  <variable name="Y(172,67)" index="37515" value="1"/>
  <variable name="Y(174,69)" index="37955" value="1"/>
  <variable name="Y(175,70)" index="38175" value="1"/>
  <variable name="Y(184,80)" index="40156" value="1"/>
  <variable name="Y(186,82)" index="40596" value="1"/>
  <variable name="Y(188,84)" index="41036" value="1"/>
  <variable name="Y(193,90)" index="42137" value="1"/>
  <variable name="Y(196,93)" index="42797" value="1"/>
  <variable name="Y(198,96)" index="43238" value="1"/>
  <variable name="Y(199,97)" index="43458" value="1"/>
  <variable name="Y(200,98)" index="43678" value="1"/>
  <variable name="Y(201,99)" index="43898" value="1"/>
  <variable name="Y(202,100)" index="44118" value="1"/>
  <variable name="Y(205,104)" index="44779" value="1"/>
  <variable name="Y(206,105)" index="44999" value="1"/>
  <variable name="Y(210,109)" index="45879" value="1"/>
  <variable name="Y(211,110)" index="46099" value="1"/>
  <variable name="Y(214,3)" index="46649" value="1"/>
  <variable name="Y(218,8)" index="47530" value="1"/>
  <variable name="Y(232,23)" index="50611" value="1"/>
  <variable name="Y(284,78)" index="62054" value="1"/>
  <variable name="Y(294,88)" index="64254" value="1"/>
  <variable name="Y(300,94)" index="65574" value="1"/>
  <variable name="Y(307,101)" index="67114" value="1"/>
  <variable name="Y(1003,9)" index="219446" value="1"/>
  <variable name="Y(1031,39)" index="225608" value="1"/>
  <variable name="Y(1051,59)" index="230008" value="1"/>
  <variable name="X(1,36,2)" index="2100649" value="1"/>
  <variable name="X(1,104,1)" index="2110240" value="1"/>
  <variable name="X(1,111,42)" index="2119873" value="1"/>
  <variable name="X(2,40,42)" index="2129465" value="1"/>
  <variable name="X(2,66,2)" index="2139017" value="1"/>
  <variable name="X(2,112,114)" index="2148721" value="1"/>
  <variable name="X(3,4,113)" index="2158312" value="1"/>
  <variable name="X(3,56,120)" index="2167911" value="1"/>
  <variable name="X(3,102,138)" index="2177521" value="1"/>
  <variable name="X(3,113,214)" index="2187189" value="1"/>
  <variable name="X(4,3,214)" index="2196781" value="1"/>
  <variable name="X(4,50,113)" index="2206272" value="1"/>
  <variable name="X(4,102,11)" index="2215762" value="1"/>
  <variable name="X(4,114,1)" index="2225344" value="1"/>
  <variable name="X(5,6,114)" index="2235049" value="1"/>
  <variable name="X(5,49,43)" index="2244570" value="1"/>
  <variable name="X(5,115,44)" index="2254163" value="1"/>
  <variable name="X(6,5,43)" index="2263754" value="1"/>
  <variable name="X(6,34,114)" index="2273417" value="1"/>
  <variable name="X(6,116,2)" index="2282897" value="1"/>
  <variable name="X(7,20,425)" index="2292912" value="1"/>
  <variable name="X(7,34,511)" index="2302590" value="1"/>
  <variable name="X(7,117,46)" index="2311717" value="1"/>
  <variable name="X(8,9,124)" index="2321387" value="1"/>
  <variable name="X(8,19,48)" index="2330903" value="1"/>
  <variable name="X(8,20,8)" index="2340455" value="1"/>
  <variable name="X(8,65,170)" index="2350209" value="1"/>
  <variable name="X(8,118,218)" index="2359849" value="1"/>
  <variable name="X(9,8,47)" index="2369270" value="1"/>
  <variable name="X(9,10,124)" index="2378939" value="1"/>
  <variable name="X(9,65,30)" index="2388437" value="1"/>
  <variable name="X(9,119,1003)" index="2399002" value="1"/>
  <variable name="X(10,9,30)" index="2407621" value="1"/>
  <variable name="X(10,40,125)" index="2417308" value="1"/>
  <variable name="X(10,120,119)" index="2426894" value="1"/>
  <variable name="X(11,18,54)" index="2436421" value="1"/>
  <variable name="X(11,23,232)" index="2446191" value="1"/>
  <variable name="X(11,32,12)" index="2455563" value="1"/>
  <variable name="X(11,38,70)" index="2465213" value="1"/>
  <variable name="X(11,83,36)" index="2474771" value="1"/>
  <variable name="X(11,84,188)" index="2484515" value="1"/>
  <variable name="X(11,121,47)" index="2493966" value="1"/>
  <variable name="X(12,22,131)" index="2503642" value="1"/>
  <variable name="X(12,73,24)" index="2513127" value="1"/>
  <variable name="X(12,74,179)" index="2522874" value="1"/>
  <variable name="X(12,107,110)" index="2532397" value="1"/>
  <variable name="X(12,122,48)" index="2541927" value="1"/>
  <variable name="X(13,20,119)" index="2551590" value="1"/>
  <variable name="X(13,27,113)" index="2561176" value="1"/>
  <variable name="X(13,28,234)" index="2570889" value="1"/>
  <variable name="X(13,53,9)" index="2580256" value="1"/>
  <variable name="X(13,123,3)" index="2589842" value="1"/>
  <variable name="X(14,62,12)" index="2599443" value="1"/>
  <variable name="X(14,105,909)" index="2609932" value="1"/>
  <variable name="X(14,106,990)" index="2619605" value="1"/>
  <variable name="X(14,124,4)" index="2628211" value="1"/>
  <variable name="X(15,16,1309)" index="2639108" value="1"/>
  <variable name="X(15,45,1300)" index="2648691" value="1"/>
  <variable name="X(15,125,5)" index="2656988" value="1"/>
  <variable name="X(16,15,1387)" index="2667962" value="1"/>
  <variable name="X(16,45,1375)" index="2677542" value="1"/>
  <variable name="X(16,126,6)" index="2685765" value="1"/>
  <variable name="X(17,25,133)" index="2695484" value="1"/>
  <variable name="X(17,28,911)" index="2705854" value="1"/>
  <variable name="X(17,57,26)" index="2714561" value="1"/>
  <variable name="X(17,73,54)" index="2724181" value="1"/>
  <variable name="X(17,90,38)" index="2733757" value="1"/>
  <variable name="X(17,127,7)" index="2743318" value="1"/>
  <variable name="X(18,11,1581)" index="2754484" value="1"/>
  <variable name="X(18,24,926)" index="2763421" value="1"/>
  <variable name="X(18,128,54)" index="2772141" value="1"/>
  <variable name="X(19,8,940)" index="2782619" value="1"/>
  <variable name="X(19,27,61)" index="2791332" value="1"/>
  <variable name="X(19,28,3)" index="2800866" value="1"/>
  <variable name="X(19,48,50)" index="2810505" value="1"/>
  <variable name="X(19,129,128)" index="2820175" value="1"/>
  <variable name="X(20,7,217)" index="2829856" value="1"/>
  <variable name="X(20,8,119)" index="2839350" value="1"/>
  <variable name="X(20,13,60)" index="2848883" value="1"/>
  <variable name="X(20,130,8)" index="2858423" value="1"/>
  <variable name="X(21,32,54)" index="2868061" value="1"/>
  <variable name="X(21,73,910)" index="2878509" value="1"/>
  <variable name="X(21,131,56)" index="2887247" value="1"/>
  <variable name="X(22,12,7)" index="2896790" value="1"/>
  <variable name="X(22,47,995)" index="2907370" value="1"/>
  <variable name="X(22,132,57)" index="2916024" value="1"/>
  <variable name="X(23,11,2014)" index="2927573" value="1"/>
  <variable name="X(23,133,232)" index="2935383" value="1"/>
  <variable name="X(24,134,58)" index="2944801" value="1"/>
  <variable name="X(25,17,2116)" index="2956451" value="1"/>
  <variable name="X(25,28,2114)" index="2966041" value="1"/>
  <variable name="X(25,135,59)" index="2973578" value="1"/>
  <variable name="X(26,29,63)" index="2983174" value="1"/>
  <variable name="X(26,53,2209)" index="2994912" value="1"/>
  <variable name="X(26,136,9)" index="3002304" value="1"/>
  <variable name="X(27,13,2271)" index="3014158" value="1"/>
  <variable name="X(27,19,113)" index="3021592" value="1"/>
  <variable name="X(27,137,61)" index="3031132" value="1"/>
  <variable name="X(28,13,3)" index="3040666" value="1"/>
  <variable name="X(28,17,53)" index="3050308" value="1"/>
  <variable name="X(28,19,910)" index="3060757" value="1"/>
  <variable name="X(28,25,59)" index="3069498" value="1"/>
  <variable name="X(28,138,10)" index="3079041" value="1"/>
  <variable name="X(29,26,2474)" index="3091097" value="1"/>
  <variable name="X(29,30,388)" index="3098603" value="1"/>
  <variable name="X(29,139,63)" index="3107870" value="1"/>
  <variable name="X(30,29,931)" index="3118330" value="1"/>
  <variable name="X(30,78,388)" index="3127379" value="1"/>
  <variable name="X(31,85,2629)" index="3139212" value="1"/>
  <variable name="X(31,86,102)" index="3146277" value="1"/>
  <variable name="X(31,100,202)" index="3155969" value="1"/>
  <variable name="X(31,101,307)" index="3165666" value="1"/>
  <variable name="X(31,141,11)" index="3174962" value="1"/>
  <variable name="X(32,11,47)" index="3184590" value="1"/>
  <variable name="X(32,21,910)" index="3195045" value="1"/>
  <variable name="X(32,24,58)" index="3203785" value="1"/>
  <variable name="X(32,142,12)" index="3213331" value="1"/>
  <variable name="X(33,34,2773)" index="3225684" value="1"/>
  <variable name="X(33,44,18)" index="3232521" value="1"/>
  <variable name="X(33,67,172)" index="3242267" value="1"/>
  <variable name="X(33,75,180)" index="3251867" value="1"/>
  <variable name="X(33,143,13)" index="3261292" value="1"/>
  <variable name="X(34,6,2)" index="3270873" value="1"/>
  <variable name="X(34,7,322)" index="3280785" value="1"/>
  <variable name="X(34,33,17)" index="3290072" value="1"/>
  <variable name="X(34,46,114)" index="3299761" value="1"/>
  <variable name="X(34,144,14)" index="3309253" value="1"/>
  <variable name="X(35,47,1)" index="3318832" value="1"/>
  <variable name="X(35,103,113)" index="3328536" value="1"/>
  <variable name="X(35,105,4)" index="3338019" value="1"/>
  <variable name="X(35,145,68)" index="3347675" value="1"/>
  <variable name="X(36,1,42)" index="3357241" value="1"/>
  <variable name="X(36,54,5)" index="3366796" value="1"/>
  <variable name="X(36,76,2)" index="3376385" value="1"/>
  <variable name="X(36,146,15)" index="3385990" value="1"/>
  <variable name="X(37,40,8)" index="3395575" value="1"/>
  <variable name="X(37,54,51)" index="3405210" value="1"/>
  <variable name="X(37,76,42)" index="3414793" value="1"/>
  <variable name="X(37,147,144)" index="3424487" value="1"/>
  <variable name="X(38,11,12)" index="3433947" value="1"/>
  <variable name="X(38,59,991)" index="3444518" value="1"/>
  <variable name="X(38,62,909)" index="3454028" value="1"/>
  <variable name="X(38,148,70)" index="3462781" value="1"/>
  <variable name="X(39,49,651)" index="3472954" value="1"/>
  <variable name="X(39,50,11)" index="3481906" value="1"/>
  <variable name="X(39,53,118)" index="3491605" value="1"/>
  <variable name="X(39,55,84)" index="3501163" value="1"/>
  <variable name="X(39,149,1031)" index="3511702" value="1"/>
  <variable name="X(40,2,2)" index="3520265" value="1"/>
  <variable name="X(40,10,8)" index="3529863" value="1"/>
  <variable name="X(40,37,51)" index="3539498" value="1"/>
  <variable name="X(40,150,16)" index="3549055" value="1"/>
  <variable name="X(41,42,3515)" index="3562146" value="1"/>
  <variable name="X(41,69,149)" index="3568372" value="1"/>
  <variable name="X(41,72,32)" index="3577847" value="1"/>
  <variable name="X(41,81,183)" index="3587590" value="1"/>
  <variable name="X(41,82,150)" index="3597149" value="1"/>
  <variable name="X(41,151,72)" index="3606663" value="1"/>
  <variable name="X(42,41,3583)" index="3619766" value="1"/>
  <variable name="X(42,63,168)" index="3625943" value="1"/>
  <variable name="X(42,69,3621)" index="3638988" value="1"/>
  <variable name="X(42,72,3585)" index="3648544" value="1"/>
  <variable name="X(42,152,17)" index="3654568" value="1"/>
  <variable name="X(43,44,3689)" index="3667832" value="1"/>
  <variable name="X(43,69,17)" index="3673752" value="1"/>
  <variable name="X(43,80,184)" index="3683511" value="1"/>
  <variable name="X(43,110,211)" index="3693130" value="1"/>
  <variable name="X(43,153,18)" index="3702529" value="1"/>
  <variable name="X(44,33,2698)" index="3714801" value="1"/>
  <variable name="X(44,43,17)" index="3721712" value="1"/>
  <variable name="X(44,70,175)" index="3731462" value="1"/>
  <variable name="X(44,79,98)" index="3740977" value="1"/>
  <variable name="X(44,80,286)" index="3750757" value="1"/>
  <variable name="X(44,82,32)" index="3760095" value="1"/>
  <variable name="X(44,154,19)" index="3769674" value="1"/>
  <variable name="X(45,15,5)" index="3779252" value="1"/>
  <variable name="X(45,16,6)" index="3788845" value="1"/>
  <variable name="X(45,54,1300)" index="3799731" value="1"/>
  <variable name="X(45,61,166)" index="3808189" value="1"/>
  <variable name="X(45,155,20)" index="3817635" value="1"/>
  <variable name="X(46,34,13)" index="3827220" value="1"/>
  <variable name="X(46,65,89)" index="3836888" value="1"/>
  <variable name="X(46,68,114)" index="3846505" value="1"/>
  <variable name="X(46,75,95)" index="3856078" value="1"/>
  <variable name="X(46,156,21)" index="3865596" value="1"/>
  <variable name="X(47,22,7)" index="3875174" value="1"/>
  <variable name="X(47,35,50)" index="3884809" value="1"/>
  <variable name="X(47,48,1)" index="3894352" value="1"/>
  <variable name="X(47,157,22)" index="3903965" value="1"/>
  <variable name="X(48,19,3)" index="3913538" value="1"/>
  <variable name="X(48,47,50)" index="3923177" value="1"/>
  <variable name="X(48,74,34)" index="3932753" value="1"/>
  <variable name="X(48,158,23)" index="3942334" value="1"/>
  <variable name="X(49,5,114)" index="3952017" value="1"/>
  <variable name="X(49,39,84)" index="3961579" value="1"/>
  <variable name="X(49,50,43)" index="3971130" value="1"/>
  <variable name="X(49,159,80)" index="3980759" value="1"/>
  <variable name="X(50,4,1)" index="3990272" value="1"/>
  <variable name="X(50,39,118)" index="3999981" value="1"/>
  <variable name="X(50,49,114)" index="4009569" value="1"/>
  <variable name="X(50,71,29)" index="4019076" value="1"/>
  <variable name="X(50,160,156)" index="4028795" value="1"/>
  <variable name="X(51,52,158)" index="4038389" value="1"/>
  <variable name="X(51,58,4497)" index="4052320" value="1"/>
  <variable name="X(51,94,300)" index="4057715" value="1"/>
  <variable name="X(51,96,38)" index="4067045" value="1"/>
  <variable name="X(51,161,157)" index="4076756" value="1"/>
  <variable name="X(52,51,38)" index="4086229" value="1"/>
  <variable name="X(52,89,97)" index="4095880" value="1"/>
  <variable name="X(52,90,193)" index="4105568" value="1"/>
  <variable name="X(52,94,793)" index="4115760" value="1"/>
  <variable name="X(52,162,24)" index="4124583" value="1"/>
  <variable name="X(53,13,118)" index="4134269" value="1"/>
  <variable name="X(53,26,9)" index="4143752" value="1"/>
  <variable name="X(53,39,11)" index="4153346" value="1"/>
  <variable name="X(53,163,25)" index="4162952" value="1"/>
  <variable name="X(54,36,1300)" index="4173819" value="1"/>
  <variable name="X(54,37,1301)" index="4183412" value="1"/>
  <variable name="X(54,45,5)" index="4191708" value="1"/>
  <variable name="X(54,60,165)" index="4201460" value="1"/>
  <variable name="X(54,164,83)" index="4210970" value="1"/>
  <variable name="X(55,39,4501)" index="4224980" value="1"/>
  <variable name="X(55,56,84)" index="4230155" value="1"/>
  <variable name="X(55,165,161)" index="4239824" value="1"/>
  <variable name="X(56,3,932)" index="4250187" value="1"/>
  <variable name="X(56,55,161)" index="4259008" value="1"/>
  <variable name="X(56,93,120)" index="4268559" value="1"/>
  <variable name="X(56,166,26)" index="4278057" value="1"/>
  <variable name="X(57,17,121)" index="4287744" value="1"/>
  <variable name="X(57,58,26)" index="4297241" value="1"/>
  <variable name="X(57,78,284)" index="4307091" value="1"/>
  <variable name="X(57,167,27)" index="4316426" value="1"/>
  <variable name="X(58,51,157)" index="4326148" value="1"/>
  <variable name="X(58,57,121)" index="4335704" value="1"/>
  <variable name="X(58,93,592)" index="4345767" value="1"/>
  <variable name="X(58,97,199)" index="4354966" value="1"/>
  <variable name="X(58,98,200)" index="4364559" value="1"/>
  <variable name="X(58,168,28)" index="4373979" value="1"/>
  <variable name="X(59,38,1030)" index="4384573" value="1"/>
  <variable name="X(59,108,991)" index="4394126" value="1"/>
  <variable name="X(59,169,1051)" index="4403778" value="1"/>
  <variable name="X(60,54,5410)" index="4417729" value="1"/>
  <variable name="X(60,61,5463)" index="4427374" value="1"/>
  <variable name="X(60,170,165)" index="4431668" value="1"/>
  <variable name="X(61,45,5508)" index="4446603" value="1"/>
  <variable name="X(61,60,1427)" index="4452114" value="1"/>
  <variable name="X(61,171,166)" index="4460445" value="1"/>
  <variable name="X(62,14,909)" index="4470780" value="1"/>
  <variable name="X(62,38,12)" index="4479475" value="1"/>
  <variable name="X(62,172,87)" index="4489142" value="1"/>
  <variable name="X(63,42,5586)" index="4504233" value="1"/>
  <variable name="X(63,173,168)" index="4508407" value="1"/>
  <variable name="X(64,71,2629)" index="4520460" value="1"/>
  <variable name="X(64,72,147)" index="4527570" value="1"/>
  <variable name="X(64,85,2799)" index="4539814" value="1"/>
  <variable name="X(64,99,201)" index="4546808" value="1"/>
  <variable name="X(64,174,29)" index="4556228" value="1"/>
  <variable name="X(65,8,4012)" index="4569803" value="1"/>
  <variable name="X(65,9,317)" index="4575700" value="1"/>
  <variable name="X(65,46,612)" index="4585587" value="1"/>
  <variable name="X(65,175,30)" index="4594597" value="1"/>
  <variable name="X(66,2,114)" index="4604273" value="1"/>
  <variable name="X(66,68,2)" index="4613753" value="1"/>
  <variable name="X(66,176,171)" index="4623514" value="1"/>
  <variable name="X(67,33,5916)" index="4638851" value="1"/>
  <variable name="X(67,110,316)" index="4642843" value="1"/>
  <variable name="X(67,177,172)" index="4652291" value="1"/>
  <variable name="X(68,46,2)" index="4661713" value="1"/>
  <variable name="X(68,66,114)" index="4671417" value="1"/>
  <variable name="X(68,178,31)" index="4680926" value="1"/>
  <variable name="X(69,41,3691)" index="4694178" value="1"/>
  <variable name="X(69,42,17)" index="4700096" value="1"/>
  <variable name="X(69,43,149)" index="4709820" value="1"/>
  <variable name="X(69,179,174)" index="4719437" value="1"/>
  <variable name="X(70,44,6209)" index="4735064" value="1"/>
  <variable name="X(70,110,6269)" index="4744716" value="1"/>
  <variable name="X(70,180,175)" index="4748214" value="1"/>
  <variable name="X(71,50,2629)" index="4760260" value="1"/>
  <variable name="X(71,64,29)" index="4767252" value="1"/>
  <variable name="X(71,181,91)" index="4776906" value="1"/>
  <variable name="X(72,41,147)" index="4786554" value="1"/>
  <variable name="X(72,42,148)" index="4796147" value="1"/>
  <variable name="X(72,64,2799)" index="4808390" value="1"/>
  <variable name="X(72,182,32)" index="4815215" value="1"/>
  <variable name="X(73,12,121)" index="4824896" value="1"/>
  <variable name="X(73,17,24)" index="4834391" value="1"/>
  <variable name="X(73,21,54)" index="4844013" value="1"/>
  <variable name="X(73,183,33)" index="4853584" value="1"/>
  <variable name="X(74,12,48)" index="4863191" value="1"/>
  <variable name="X(74,48,948)" index="4873683" value="1"/>
  <variable name="X(74,184,34)" index="4882361" value="1"/>
  <variable name="X(75,33,6695)" index="4898614" value="1"/>
  <variable name="X(75,46,6693)" index="4908204" value="1"/>
  <variable name="X(75,185,95)" index="4911198" value="1"/>
  <variable name="X(76,36,42)" index="4920737" value="1"/>
  <variable name="X(76,37,2)" index="4930289" value="1"/>
  <variable name="X(76,186,35)" index="4939914" value="1"/>
  <variable name="X(77,88,294)" index="4949765" value="1"/>
  <variable name="X(77,89,6882)" index="4965945" value="1"/>
  <variable name="X(77,187,97)" index="4968752" value="1"/>
  <variable name="X(78,30,931)" index="4979178" value="1"/>
  <variable name="X(78,57,2245)" index="4990084" value="1"/>
  <variable name="X(78,188,284)" index="4997715" value="1"/>
  <variable name="X(79,44,7002)" index="5014025" value="1"/>
  <variable name="X(79,81,99)" index="5016714" value="1"/>
  <variable name="X(79,189,98)" index="5026305" value="1"/>
  <variable name="X(80,43,7049)" index="5042848" value="1"/>
  <variable name="X(80,44,7048)" index="5052439" value="1"/>
  <variable name="X(80,190,184)" index="5055167" value="1"/>
  <variable name="X(81,41,7003)" index="5071578" value="1"/>
  <variable name="X(81,79,183)" index="5074350" value="1"/>
  <variable name="X(81,191,99)" index="5083858" value="1"/>
  <variable name="X(82,41,32)" index="5093383" value="1"/>
  <variable name="X(82,44,150)" index="5103093" value="1"/>
  <variable name="X(82,192,186)" index="5112721" value="1"/>
  <variable name="X(83,11,7283)" index="5129410" value="1"/>
  <variable name="X(83,84,7360)" index="5139079" value="1"/>
  <variable name="X(83,193,36)" index="5141347" value="1"/>
  <variable name="X(84,11,7386)" index="5158289" value="1"/>
  <variable name="X(84,83,7463)" index="5167958" value="1"/>
  <variable name="X(84,194,188)" index="5170275" value="1"/>
  <variable name="X(85,31,11)" index="5179690" value="1"/>
  <variable name="X(85,64,147)" index="5189418" value="1"/>
  <variable name="X(85,102,2631)" index="5201494" value="1"/>
  <variable name="X(85,195,37)" index="5208492" value="1"/>
  <variable name="X(86,31,7595)" index="5225642" value="1"/>
  <variable name="X(86,91,2714)" index="5230353" value="1"/>
  <variable name="X(86,196,102)" index="5237333" value="1"/>
  <variable name="X(87,95,40)" index="5246863" value="1"/>
  <variable name="X(87,96,7690)" index="5264105" value="1"/>
  <variable name="X(87,197,38)" index="5266045" value="1"/>
  <variable name="X(88,77,7693)" index="5283292" value="1"/>
  <variable name="X(88,95,6962)" index="5292153" value="1"/>
  <variable name="X(88,198,294)" index="5295077" value="1"/>
  <variable name="X(89,52,6882)" index="5311257" value="1"/>
  <variable name="X(89,77,97)" index="5314064" value="1"/>
  <variable name="X(89,199,104)" index="5323663" value="1"/>
  <variable name="X(90,17,4602)" index="5337753" value="1"/>
  <variable name="X(90,52,38)" index="5342781" value="1"/>
  <variable name="X(90,200,193)" index="5352528" value="1"/>
  <variable name="X(91,86,7994)" index="5369921" value="1"/>
  <variable name="X(91,92,7674)" index="5379193" value="1"/>
  <variable name="X(91,201,39)" index="5381150" value="1"/>
  <variable name="X(92,91,39)" index="5390742" value="1"/>
  <variable name="X(92,102,7993)" index="5408288" value="1"/>
  <variable name="X(92,202,106)" index="5409993" value="1"/>
  <variable name="X(93,56,932)" index="5420411" value="1"/>
  <variable name="X(93,58,121)" index="5429192" value="1"/>
  <variable name="X(93,203,196)" index="5438859" value="1"/>
  <variable name="X(94,51,8199)" index="5456454" value="1"/>
  <variable name="X(94,52,8197)" index="5466044" value="1"/>
  <variable name="X(94,204,300)" index="5467739" value="1"/>
  <variable name="X(95,87,6962)" index="5483993" value="1"/>
  <variable name="X(95,88,8353)" index="5494976" value="1"/>
  <variable name="X(95,109,210)" index="5496425" value="1"/>
  <variable name="X(95,205,40)" index="5505847" value="1"/>
  <variable name="X(96,51,7690)" index="5523089" value="1"/>
  <variable name="X(96,87,38)" index="5525029" value="1"/>
  <variable name="X(96,206,198)" index="5534781" value="1"/>
  <variable name="X(97,58,8437)" index="5552612" value="1"/>
  <variable name="X(97,207,199)" index="5553966" value="1"/>
  <variable name="X(98,58,8535)" index="5571894" value="1"/>
  <variable name="X(98,208,200)" index="5573151" value="1"/>
  <variable name="X(99,64,8624)" index="5591167" value="1"/>
  <variable name="X(99,209,201)" index="5592336" value="1"/>
  <variable name="X(100,31,8702)" index="5610429" value="1"/>
  <variable name="X(100,210,202)" index="5611521" value="1"/>
  <variable name="X(101,31,8773)" index="5629684" value="1"/>
  <variable name="X(101,211,307)" index="5630810" value="1"/>
  <variable name="X(102,3,2631)" index="5642726" value="1"/>
  <variable name="X(102,4,2632)" index="5652319" value="1"/>
  <variable name="X(102,85,37)" index="5659316" value="1"/>
  <variable name="X(102,92,39)" index="5668910" value="1"/>
  <variable name="X(102,212,41)" index="5678504" value="1"/>
  <variable name="X(103,35,1)" index="5688056" value="1"/>
  <variable name="X(103,104,113)" index="5697760" value="1"/>
  <variable name="X(103,213,109)" index="5707348" value="1"/>
  <variable name="X(104,1,113)" index="5716944" value="1"/>
  <variable name="X(104,103,1)" index="5726424" value="1"/>
  <variable name="X(104,214,205)" index="5736220" value="1"/>
  <variable name="X(105,14,4)" index="5745611" value="1"/>
  <variable name="X(105,35,909)" index="5756108" value="1"/>
  <variable name="X(105,215,206)" index="5764997" value="1"/>
  <variable name="X(106,14,123)" index="5774506" value="1"/>
  <variable name="X(106,107,1215)" index="5785190" value="1"/>
  <variable name="X(106,216,110)" index="5793677" value="1"/>
  <variable name="X(107,12,1215)" index="5804374" value="1"/>
  <variable name="X(107,106,110)" index="5812861" value="1"/>
  <variable name="X(107,108,112)" index="5822455" value="1"/>
  <variable name="X(107,217,111)" index="5832046" value="1"/>
  <variable name="X(108,59,1030)" index="5842557" value="1"/>
  <variable name="X(108,107,991)" index="5852110" value="1"/>
  <variable name="X(108,218,112)" index="5860823" value="1"/>
  <variable name="X(109,95,9454)" index="5879757" value="1"/>
  <variable name="X(109,219,210)" index="5880105" value="1"/>
  <variable name="X(110,43,5949)" index="5895436" value="1"/>
  <variable name="X(110,67,2690)" index="5901769" value="1"/>
  <variable name="X(110,70,5972)" index="5914643" value="1"/>
  <variable name="X(110,220,211)" index="5918474" value="1"/>
 </variables>
</CPLEXSolution>
